6 32 4 10
7 18 9 14 14 18 18 8 20 14 9 1 11 3 17 18 7 1 11 20 10 14 18 14 9 14 14 1 6 12 5 20 
1.33 3.42 6.71 4.12 3.43 2.6 1.41 6.55 7.16 1.52 4.48 5.28 6.85 1.75 7.66 1.58 4.22 0.42 1.26 3.6 0.61 6.83 6.03 2.08 6.79 1.14 1.08 6.83 0.24 5.22 2.32 5.99 
3.43 3.39 6.37 4.39 0.34 7.99 0.61 2.16 2.47 2.31 3.27 5.48 2.39 5.18 1.8 7.46 6.57 5.45 2.64 1.08 2.32 1.12 6.16 7.22 6.8 5.95 6.03 2.28 5.04 6.35 7.01 4.34 
2.85 2.64 2.82 4.02 6.84 7.98 4.91 2.44 7.28 0.73 6.03 7.91 0.28 2.93 5.79 7.1 5.79 3.39 6.71 7.08 6.93 1.59 6.22 3.25 6.68 1.67 0.48 7.24 0.74 7.22 4.55 5.35 
0.05 7.41 0.32 7.18 2.09 6.3 1.75 3.05 7.09 3.75 6.6 6.52 1.36 4.48 3.29 3.04 4.67 1.52 7.34 6.35 6.97 3.77 7.64 2.55 0.37 2.82 4.4 6.95 5.76 1.79 3.95 0.4 
4 4 4 4 4 4 4 4 4 4 4 4 4 4 4 4 4 4 4 4 4 4 4 4 4 4 4 4 4 4 4 4 
4.94 1.57 7.38 7.8 3.48 2.43 5.57 5.15 4.94 4.24 5.52 6.59 0.71 2 4.69 4.01 0.9 3.87 7.4 5.74 0.42 3.29 1.9 7.63 6.55 6.66 1.51 0.98 1.5 5.89 2.21 5.93 
1 1 1 1 1 1 1 1 1 1 1 1 1 1 1 1 1 1 1 1 1 1 1 1 1 1 1 1 1 1 1 1 
1 1 1 1 1 1 1 1 1 1 1 1 1 1 1 1 1 1 1 1 1 1 1 1 1 1 1 1 1 1 1 1 
1 1 1 1 1 1 1 1 1 1 1 1 1 1 1 1 1 1 1 1 1 1 1 1 1 1 1 1 1 1 1 1 
1 1 1 1 1 1 1 1 1 1 1 1 1 1 1 1 1 1 1 1 1 1 1 1 1 1 1 1 1 1 1 1 
1 1 1 1 1 1 1 1 1 1 1 1 1 1 1 1 1 1 1 1 1 1 1 1 1 1 1 1 1 1 1 1 
1 1 1 1 1 1 1 1 1 1 1 1 1 1 1 1 1 1 1 1 1 1 1 1 1 1 1 1 1 1 1 1 
0.01 0.01 0.01 0.01 0.01 0.01 0.01 0.01 0.01 0.01 0.01 0.01 0.01 0.01 0.01 0.01 0.01 0.01 0.01 0.01 0.01 0.01 0.01 0.01 0.01 0.01 0.01 0.01 0.01 0.01 0.01 0.01 
0.02 0.02 0.02 0.02 0.02 0.02 0.02 0.02 0.02 0.02 0.02 0.02 0.02 0.02 0.02 0.02 0.02 0.02 0.02 0.02 0.02 0.02 0.02 0.02 0.02 0.02 0.02 0.02 0.02 0.02 0.02 0.02 
0.03 0.03 0.03 0.03 0.03 0.03 0.03 0.03 0.03 0.03 0.03 0.03 0.03 0.03 0.03 0.03 0.03 0.03 0.03 0.03 0.03 0.03 0.03 0.03 0.03 0.03 0.03 0.03 0.03 0.03 0.03 0.03 
0.04 0.04 0.04 0.04 0.04 0.04 0.04 0.04 0.04 0.04 0.04 0.04 0.04 0.04 0.04 0.04 0.04 0.04 0.04 0.04 0.04 0.04 0.04 0.04 0.04 0.04 0.04 0.04 0.04 0.04 0.04 0.04 
0.05 0.05 0.05 0.05 0.05 0.05 0.05 0.05 0.05 0.05 0.05 0.05 0.05 0.05 0.05 0.05 0.05 0.05 0.05 0.05 0.05 0.05 0.05 0.05 0.05 0.05 0.05 0.05 0.05 0.05 0.05 0.05 
1 1 1 1 1 1 1 1 1 1 1 1 1 1 1 1 1 1 1 1 1 1 1 1 1 1 1 1 1 1 1 1 
